NAME: instance_2859
TYPE: TSP
DIMENSION: 20
EDGE_WEIGHT_TYPE: EUC_2D
NODE_COORD_SECTION
0 62.33 71.11
1 97.17 85.77
2 94.13 55.97
3 64.02 39.97
4 78.83 16.13
5 67.55 66.06
6 65.47 23.60
7 90.57 35.11
8 2.34 80.04
9 85.36 74.40
10 80.01 24.28
11 88.38 58.12
12 46.50 4.84
13 95.70 10.15
14 31.05 82.30
15 51.20 28.28
16 41.85 60.99
17 51.28 75.28
18 56.71 7.90
19 89.63 42.48
EOF
